networks/zoo_78_891/zoo_78_891-lower.txt
Number of groups: 39
Flow 1: {1 2 0} {2 41 0} 
Flow 2: {1 7 0} {7 8 0} {8 39 0} {39 3 0} {3 42 0} 
Flow 3: {1 4 0} {4 43 0} 
Flow 4: {7 6 0} {6 45 0} 
Flow 5: {7 46 0} 
Flow 6: {8 47 0} 
Flow 7: {8 9 0} {9 48 0} 
Flow 8: {7 10 0} {10 49 0} 
Flow 9: {10 11 0} {11 50 0} 
Flow 10: {1 36 0} {36 12 0} {12 51 0} 
Flow 11: {36 13 0} {13 52 0} 
Flow 12: {1 37 0} {37 35 0} {35 14 0} {14 53 0} 
Flow 13: {1 15 0} {15 54 0} 
Flow 14: {10 24 0} {24 16 0} {16 55 0} 
Flow 15: {8 17 0} {17 56 0} 
Flow 16: {4 18 0} {18 57 0} 
Flow 17: {18 20 0} {20 59 0} 
Flow 18: {38 21 0} {21 60 0} 
Flow 18: {36 38 0} Flow 19: {39 22 0} {22 61 0} 
Flow 20: {36 23 0} {23 62 0} 
Flow 21: {24 63 0} 
Flow 22: {10 25 0} {25 64 0} 
Flow 23: {4 26 0} {26 65 0} 
Flow 24: {36 27 0} {27 66 0} 
Flow 25: {36 28 0} {28 67 0} 
Flow 26: {39 29 0} {29 68 0} 
Flow 27: {36 30 0} {30 69 0} 
Flow 28: {36 31 0} {31 70 0} 
Flow 29: {36 33 0} {33 32 0} {32 71 0} 
Flow 30: {33 72 0} 
Flow 31: {35 74 0} 
Flow 32: {36 75 0} 
Flow 33: {37 76 0} 
Flow 34: {38 77 0} 
Flow 35: {39 78 0} 
Flow 36: {2 1 0} {1 40 0} 
Flow 50: {3 39 0} {39 8 0} {8 7 0} {7 1 0} Flow 51: {8 36 0} {36 4 0} Flow 54: {8 10 0} Flow 66: {4 1 0} Flow 68: {4 36 0} {36 8 0} Flow 69: {8 5 0} {5 44 0} 
Flow 78: {36 35 0} Flow 97: {35 34 0} {34 73 0} 
Flow 103: {5 8 0} Flow 109: {6 7 0} Flow 111: {6 8 0} Flow 126: {8 19 0} {19 58 0} 
Flow 190: {8 6 0} Flow 223: {9 8 0} Flow 235: {10 7 0} Flow 237: {10 8 0} Flow 273: {11 10 0} Flow 286: {12 36 0} {36 1 0} Flow 301: {13 36 0} Flow 312: {14 35 0} {35 36 0} Flow 323: {35 37 0} Flow 324: {15 1 0} Flow 335: {16 24 0} {24 10 0} Flow 347: {17 8 0} Flow 384: {18 4 0} Flow 417: {19 8 0} Flow 447: {20 18 0} Flow 459: {21 38 0} {38 36 0} Flow 473: {22 39 0} Flow 486: {23 36 0} Flow 535: {25 10 0} Flow 554: {26 4 0} Flow 565: {27 36 0} Flow 577: {28 36 0} Flow 591: {29 39 0} Flow 600: {30 36 0} Flow 638: {31 36 0} Flow 659: {32 33 0} {33 36 0} Flow 670: {33 39 0} Flow 706: {34 35 0} Flow 796: {37 1 0} Flow 886: {39 33 0} Time taken running everything: 1 seconds
