networks/zoo_78_891/zoo_78_891-lower.sol
<?xml version = "1.0" encoding="UTF-8" standalone="yes"?>
<CPLEXSolution version="1.2">
 <header
   problemName="networks/zoo_78_891/zoo_78_891-lower.lp"
   solutionName="incumbent"
   solutionIndex="-1"
   objectiveValue="39"
   solutionTypeValue="3"
   solutionTypeString="primal"
   solutionStatusValue="101"
   solutionStatusString="integer optimal solution"
   solutionMethodString="mip"
   primalFeasible="1"
   dualFeasible="1"
   MIPNodes="0"
   MIPIterations="0"
   writeLevel="3"/>
 <quality
   epInt="1.0000000000000001e-05"
   epRHS="9.9999999999999995e-07"
   maxIntInfeas="0"
   maxPrimalInfeas="0"
   maxX="1"
   maxSlack="1"/>
 <variables>
  <variable name="Y(1,2)" index="1" value="1"/>
  <variable name="Y(2,3)" index="80" value="1"/>
  <variable name="Y(3,4)" index="159" value="1"/>
  <variable name="Y(4,6)" index="239" value="1"/>
  <variable name="Y(5,7)" index="318" value="1"/>
  <variable name="Y(6,8)" index="397" value="1"/>
  <variable name="Y(7,9)" index="476" value="1"/>
  <variable name="Y(8,10)" index="555" value="1"/>
  <variable name="Y(9,11)" index="634" value="1"/>
  <variable name="Y(10,12)" index="713" value="1"/>
  <variable name="Y(11,13)" index="792" value="1"/>
  <variable name="Y(12,14)" index="871" value="1"/>
  <variable name="Y(13,15)" index="950" value="1"/>
  <variable name="Y(14,16)" index="1029" value="1"/>
  <variable name="Y(15,17)" index="1108" value="1"/>
  <variable name="Y(16,18)" index="1187" value="1"/>
  <variable name="Y(17,20)" index="1267" value="1"/>
  <variable name="Y(18,21)" index="1346" value="1"/>
  <variable name="Y(19,22)" index="1425" value="1"/>
  <variable name="Y(20,23)" index="1504" value="1"/>
  <variable name="Y(21,24)" index="1583" value="1"/>
  <variable name="Y(22,25)" index="1662" value="1"/>
  <variable name="Y(23,26)" index="1741" value="1"/>
  <variable name="Y(24,27)" index="1820" value="1"/>
  <variable name="Y(25,28)" index="1899" value="1"/>
  <variable name="Y(26,29)" index="1978" value="1"/>
  <variable name="Y(27,30)" index="2057" value="1"/>
  <variable name="Y(28,31)" index="2136" value="1"/>
  <variable name="Y(29,32)" index="2215" value="1"/>
  <variable name="Y(30,33)" index="2294" value="1"/>
  <variable name="Y(31,35)" index="2374" value="1"/>
  <variable name="Y(32,36)" index="2453" value="1"/>
  <variable name="Y(33,37)" index="2532" value="1"/>
  <variable name="Y(34,38)" index="2611" value="1"/>
  <variable name="Y(35,39)" index="2690" value="1"/>
  <variable name="Y(36,1)" index="2730" value="1"/>
  <variable name="Y(69,5)" index="5308" value="1"/>
  <variable name="Y(97,34)" index="7521" value="1"/>
  <variable name="Y(126,19)" index="9768" value="1"/>
  <variable name="X(1,2,1)" index="69498" value="1"/>
  <variable name="X(1,4,3)" index="70391" value="1"/>
  <variable name="X(1,7,2)" index="71281" value="1"/>
  <variable name="X(1,15,13)" index="72183" value="1"/>
  <variable name="X(1,36,10)" index="73071" value="1"/>
  <variable name="X(1,37,12)" index="73964" value="1"/>
  <variable name="X(1,40,36)" index="74879" value="1"/>
  <variable name="X(2,1,36)" index="75770" value="1"/>
  <variable name="X(2,41,1)" index="76626" value="1"/>
  <variable name="X(3,39,50)" index="77566" value="1"/>
  <variable name="X(3,42,2)" index="78409" value="1"/>
  <variable name="X(4,1,66)" index="79364" value="1"/>
  <variable name="X(4,18,16)" index="80205" value="1"/>
  <variable name="X(4,26,23)" index="81103" value="1"/>
  <variable name="X(4,36,68)" index="82039" value="1"/>
  <variable name="X(4,43,3)" index="82865" value="1"/>
  <variable name="X(5,8,103)" index="83856" value="1"/>
  <variable name="X(5,44,69)" index="84713" value="1"/>
  <variable name="X(6,7,109)" index="85644" value="1"/>
  <variable name="X(6,8,111)" index="86537" value="1"/>
  <variable name="X(6,45,4)" index="87321" value="1"/>
  <variable name="X(7,1,50)" index="88258" value="1"/>
  <variable name="X(7,6,4)" index="89103" value="1"/>
  <variable name="X(7,8,2)" index="89992" value="1"/>
  <variable name="X(7,10,8)" index="90889" value="1"/>
  <variable name="X(7,46,5)" index="91777" value="1"/>
  <variable name="X(8,5,69)" index="92732" value="1"/>
  <variable name="X(8,6,190)" index="93744" value="1"/>
  <variable name="X(8,7,50)" index="94495" value="1"/>
  <variable name="X(8,9,7)" index="95343" value="1"/>
  <variable name="X(8,10,54)" index="96281" value="1"/>
  <variable name="X(8,17,15)" index="97133" value="1"/>
  <variable name="X(8,19,126)" index="98135" value="1"/>
  <variable name="X(8,36,51)" index="98951" value="1"/>
  <variable name="X(8,39,2)" index="99793" value="1"/>
  <variable name="X(8,47,6)" index="100688" value="1"/>
  <variable name="X(9,8,223)" index="101796" value="1"/>
  <variable name="X(9,48,7)" index="102471" value="1"/>
  <variable name="X(10,7,235)" index="103590" value="1"/>
  <variable name="X(10,8,237)" index="104483" value="1"/>
  <variable name="X(10,11,9)" index="105146" value="1"/>
  <variable name="X(10,24,14)" index="106042" value="1"/>
  <variable name="X(10,25,22)" index="106941" value="1"/>
  <variable name="X(10,49,8)" index="107818" value="1"/>
  <variable name="X(11,10,273)" index="108974" value="1"/>
  <variable name="X(11,50,9)" index="109601" value="1"/>
  <variable name="X(12,36,286)" index="110769" value="1"/>
  <variable name="X(12,51,10)" index="111384" value="1"/>
  <variable name="X(13,36,301)" index="112566" value="1"/>
  <variable name="X(13,52,11)" index="113167" value="1"/>
  <variable name="X(14,35,312)" index="114359" value="1"/>
  <variable name="X(14,53,12)" index="114950" value="1"/>
  <variable name="X(15,1,324)" index="116153" value="1"/>
  <variable name="X(15,54,13)" index="116733" value="1"/>
  <variable name="X(16,24,335)" index="117946" value="1"/>
  <variable name="X(16,55,14)" index="118516" value="1"/>
  <variable name="X(17,8,347)" index="119740" value="1"/>
  <variable name="X(17,56,15)" index="120299" value="1"/>
  <variable name="X(18,4,384)" index="121559" value="1"/>
  <variable name="X(18,20,17)" index="122083" value="1"/>
  <variable name="X(18,57,16)" index="122973" value="1"/>
  <variable name="X(19,8,417)" index="124265" value="1"/>
  <variable name="X(19,58,126)" index="124865" value="1"/>
  <variable name="X(20,18,447)" index="126077" value="1"/>
  <variable name="X(20,59,17)" index="126538" value="1"/>
  <variable name="X(21,38,459)" index="127871" value="1"/>
  <variable name="X(21,60,18)" index="128321" value="1"/>
  <variable name="X(22,39,473)" index="129667" value="1"/>
  <variable name="X(22,61,19)" index="130104" value="1"/>
  <variable name="X(23,36,486)" index="131462" value="1"/>
  <variable name="X(23,62,20)" index="131887" value="1"/>
  <variable name="X(24,10,335)" index="133093" value="1"/>
  <variable name="X(24,16,14)" index="133663" value="1"/>
  <variable name="X(24,63,21)" index="134561" value="1"/>
  <variable name="X(25,10,535)" index="135966" value="1"/>
  <variable name="X(25,64,22)" index="136344" value="1"/>
  <variable name="X(26,4,554)" index="137767" value="1"/>
  <variable name="X(26,65,23)" index="138127" value="1"/>
  <variable name="X(27,36,565)" index="139560" value="1"/>
  <variable name="X(27,66,24)" index="139910" value="1"/>
  <variable name="X(28,36,577)" index="141354" value="1"/>
  <variable name="X(28,67,25)" index="141693" value="1"/>
  <variable name="X(29,39,591)" index="143150" value="1"/>
  <variable name="X(29,68,26)" index="143476" value="1"/>
  <variable name="X(30,36,600)" index="144941" value="1"/>
  <variable name="X(30,69,27)" index="145259" value="1"/>
  <variable name="X(31,36,638)" index="146761" value="1"/>
  <variable name="X(31,70,28)" index="147042" value="1"/>
  <variable name="X(32,33,659)" index="148564" value="1"/>
  <variable name="X(32,71,29)" index="148825" value="1"/>
  <variable name="X(33,32,29)" index="149716" value="1"/>
  <variable name="X(33,36,659)" index="151237" value="1"/>
  <variable name="X(33,39,670)" index="152139" value="1"/>
  <variable name="X(33,72,30)" index="152390" value="1"/>
  <variable name="X(34,35,706)" index="153957" value="1"/>
  <variable name="X(34,73,97)" index="154239" value="1"/>
  <variable name="X(35,14,12)" index="155045" value="1"/>
  <variable name="X(35,34,97)" index="156021" value="1"/>
  <variable name="X(35,36,312)" index="157127" value="1"/>
  <variable name="X(35,37,323)" index="158029" value="1"/>
  <variable name="X(35,74,31)" index="158628" value="1"/>
  <variable name="X(36,1,286)" index="159774" value="1"/>
  <variable name="X(36,4,51)" index="160430" value="1"/>
  <variable name="X(36,8,68)" index="161338" value="1"/>
  <variable name="X(36,12,10)" index="162171" value="1"/>
  <variable name="X(36,13,11)" index="163063" value="1"/>
  <variable name="X(36,23,20)" index="163963" value="1"/>
  <variable name="X(36,27,24)" index="164858" value="1"/>
  <variable name="X(36,28,25)" index="165750" value="1"/>
  <variable name="X(36,30,27)" index="166643" value="1"/>
  <variable name="X(36,31,28)" index="167535" value="1"/>
  <variable name="X(36,33,29)" index="168427" value="1"/>
  <variable name="X(36,35,78)" index="169367" value="1"/>
  <variable name="X(36,38,18)" index="170198" value="1"/>
  <variable name="X(36,75,32)" index="171103" value="1"/>
  <variable name="X(37,1,796)" index="172758" value="1"/>
  <variable name="X(37,35,12)" index="172865" value="1"/>
  <variable name="X(37,76,33)" index="173777" value="1"/>
  <variable name="X(38,21,18)" index="174653" value="1"/>
  <variable name="X(38,36,459)" index="175985" value="1"/>
  <variable name="X(38,77,34)" index="176451" value="1"/>
  <variable name="X(39,3,2)" index="177310" value="1"/>
  <variable name="X(39,8,50)" index="178249" value="1"/>
  <variable name="X(39,22,19)" index="179109" value="1"/>
  <variable name="X(39,29,26)" index="180007" value="1"/>
  <variable name="X(39,33,886)" index="181758" value="1"/>
  <variable name="X(39,78,35)" index="181798" value="1"/>
 </variables>
</CPLEXSolution>
